NAME : gaussian_missing_edges_with_de_seg1_seg2_seg3_random84.6034.tour
COMMENT : Length = 6034
COMMENT : Found by LKH [Keld Helsgaun] Fri Jul 12 16:34:55 2024
TYPE : TOUR
DIMENSION : 84
TOUR_SECTION
1
6
60
17
45
20
39
4
75
78
27
41
70
71
82
10
64
84
50
3
8
13
43
44
36
28
2
21
76
38
74
42
48
16
59
12
46
24
80
25
58
52
33
5
34
56
23
26
31
72
62
53
7
79
54
22
65
81
18
55
73
51
35
68
66
83
69
61
77
9
40
47
63
49
11
14
57
37
29
30
32
15
19
67
-1
EOF
